proyfinal/src/viki/013/experimentInOfficeAgust.take6.output/08db1464-8c8f-48c3-967a-584a34146f52.als.out
Reading from standard input... Use '--help' for help.
============================[ Problem Statistics ]=============================
|                                                                             |
|  Number of variables:         87638                                         |
|  Number of clauses:          161767                                         |
|  Parse time:                   0.04 s                                       |
|                                                                             |
============================[ Search Statistics ]==============================
| Conflicts |          ORIGINAL         |          LEARNT          | Progress |
|           |    Vars  Clauses Literals |    Limit  Clauses Lit/Cl |          |
===============================================================================
|       100 |   62380   105178   262771 |    38565      100     17 | 28.821 % |
|       250 |   62380   105178   262771 |    42421      250     48 | 28.821 % |
|       475 |   62380   105178   262771 |    46663      475     67 | 28.821 % |
|       812 |   62379   105134   262681 |    51330      811     68 | 28.822 % |
|      1318 |   62379   105134   262681 |    56463     1317     84 | 28.822 % |
|      2077 |   62360   105058   262502 |    62109     2075     87 | 28.844 % |
|      3216 |   62360   105058   262502 |    68320     3214     86 | 28.844 % |
|      4924 |   62360   105058   262502 |    75152     4922     79 | 28.844 % |
|      7486 |   51239    72487   181961 |    82668     7394     71 | 41.533 % |
|     11330 |   51113    71784   180293 |    90934    10634     68 | 41.677 % |
===============================================================================
restarts              : 62
conflicts             : 14527          (8287 /sec)
decisions             : 44410          (0.00 % random) (25335 /sec)
propagations          : 18990672       (10833853 /sec)
conflict literals     : 908410         (47.30 % deleted)
Memory used           : 31.91 MB
CPU time              : 1.7529 s

UNSATISFIABLE
